15	53
0	3	89
0	4	28
0	7	97
0	12	11
1	4	37
1	5	65
1	6	83
1	7	9
1	8	31
1	9	4
1	10	73
1	11	77
1	12	15
1	13	26
2	3	75
2	4	15
2	5	25
2	8	34
2	10	37
2	11	78
2	12	70
2	13	52
2	14	87
3	7	22
3	8	45
3	9	69
3	10	23
3	12	87
3	13	80
3	14	6
4	7	46
4	11	64
4	13	79
4	14	11
5	6	11
5	8	86
5	12	49
5	13	60
6	8	40
6	9	97
6	10	14
6	11	62
6	13	62
7	11	0
7	14	63
8	9	59
9	11	38
9	12	49
9	14	34
10	11	62
10	13	60
11	12	42
12	14	95
